DATASET = "thpack4";
INSTANCE = "045";

WIDTH = 233;
HEIGHT = 220;
LENGTH = 587;

NO_OF_SHAPES = 10;
size = [|
  63,55,31 |
  120,43,23 |
  97,72,57 |
  77,76,42 |
  93,74,20 |
  65,63,43 |
  108,71,40 |
  79,36,21 |
  68,62,26 |
  68,50,40 |
|];

verticality = [|
  0,1,1 |
  0,1,1 |
  1,1,1 |
  1,1,1 |
  0,0,1 |
  1,1,1 |
  0,1,1 |
  0,1,1 |
  0,0,1 |
  1,1,1 |
|];

box_count = [
  12,
  12,
  22,
  22,
  11,
  16,
  11,
  14,
  19,
  19,
];
